p tw 30 45
1 9
1 25
1 30
2 8
2 11
2 26
3 12
3 14
3 26
4 15
4 24
4 26
5 6
5 19
5 22
6 27
6 30
7 20
7 25
7 29
8 12
8 16
9 19
9 29
10 14
10 18
10 19
11 12
11 30
13 17
13 23
13 27
14 24
15 16
15 20
16 23
17 21
17 28
18 22
18 24
20 27
21 25
21 28
22 28
23 29
